NAME: random_40_1
TYPE: TSP
COMMENT: random_40_1
DIMENSION: 40
EDGE_WEIGHT_TYPE: EUC_2D
NODE_COORD_SECTION
1 301 362
2 42 228
3 294 493
4 352 207
5 84 371
6 35 147
7 170 121
8 493 384
9 17 338
10 439 311
11 475 328
12 366 138
13 149 85
14 227 31
15 213 269
16 25 148
17 376 22
18 136 202
19 138 148
20 355 206
21 52 78
22 188 204
23 361 160
24 314 457
25 430 385
26 25 416
27 414 162
28 131 44
29 297 256
30 393 134
31 343 252
32 450 206
33 163 408
34 344 130
35 46 358
36 377 137
37 241 12
38 65 260
39 146 201
40 17 334
